(set-info :source |printed by MathSAT|)
(declare-fun _OK_.next () Bool)
(declare-fun call_voiture.stop.next () Bool)
(declare-fun call_Sofar.flby () Bool)
(declare-fun move () Bool)
(declare-fun call_voiture.move () Bool)
(declare-fun dist.next () Int)
(declare-fun call_voiture.flby2.next () Bool)
(declare-fun call_Sofar.Sofar.next () Bool)
(declare-fun call_voiture.toofast.next () Bool)
(declare-fun bump.next () Bool)
(declare-fun param_s () Bool)
(declare-fun call_voiture.flby2 () Bool)
(declare-fun call_voiture.second.next () Bool)
(declare-fun env.next () Bool)
(declare-fun call_voiture.meter () Bool)
(declare-fun meter.next () Bool)
(declare-fun param_s.next () Bool)
(declare-fun speed.next () Int)
(declare-fun call_voiture.bump.next () Bool)
(declare-fun stop () Bool)
(declare-fun stop.next () Bool)
(declare-fun call_voiture.flby () Bool)
(declare-fun toofast.next () Bool)
(declare-fun second () Bool)
(declare-fun toofast () Bool)
(declare-fun call_voiture.speed () Int)
(declare-fun call_voiture.move.next () Bool)
(declare-fun call_voiture.dist () Int)
(declare-fun call_voiture.time () Int)
(declare-fun call_voiture.ite2 () Int)
(declare-fun call_voiture.time.next () Int)
(declare-fun call_Sofar.Sofar () Bool)
(declare-fun call_voiture.flby3.next () Bool)
(declare-fun time.next () Int)
(declare-fun call_voiture.flby6 () Int)
(declare-fun call_voiture.ite2.next () Int)
(declare-fun param_m.next () Bool)
(declare-fun bump () Bool)
(declare-fun call_voiture.speed.next () Int)
(declare-fun meter () Bool)
(declare-fun call_voiture.stop () Bool)
(declare-fun call_voiture.bump () Bool)
(declare-fun call_voiture.ite3 () Int)
(declare-fun call_voiture.flby4.next () Int)
(declare-fun param_m () Bool)
(declare-fun call_voiture.ite4.next () Int)
(declare-fun call_voiture.flby.next () Bool)
(declare-fun env () Bool)
(declare-fun call_voiture.flby5.next () Int)
(declare-fun call_excludes2.excludes () Bool)
(declare-fun call_voiture.dist.next () Int)
(declare-fun call_voiture.flby3 () Bool)
(declare-fun call_voiture.meter.next () Bool)
(declare-fun move.next () Bool)
(declare-fun second.next () Bool)
(declare-fun call_voiture.toofast () Bool)
(declare-fun call_voiture.ite.next () Int)
(declare-fun time () Int)
(declare-fun call_voiture.ite3.next () Int)
(declare-fun speed () Int)
(declare-fun call_voiture.flby5 () Int)
(declare-fun call_voiture.second () Bool)
(declare-fun dist () Int)
(declare-fun call_Sofar.flby.next () Bool)
(declare-fun _OK_ () Bool)
(declare-fun call_voiture.flby4 () Int)
(declare-fun call_voiture.flby6.next () Int)
(declare-fun call_excludes2.excludes.next () Bool)
(define-fun .def_562 () Bool (= call_Sofar.flby.next call_Sofar.Sofar.next))
(define-fun .def_558 () Bool (and param_s.next param_m.next))
(define-fun .def_559 () Bool (not .def_558))
(define-fun .def_560 () Bool (= call_excludes2.excludes.next .def_559))
(define-fun .def_556 () Bool (= call_voiture.meter.next call_voiture.flby.next))
(define-fun .def_554 () Bool (= call_voiture.second.next call_voiture.flby2.next))
(define-fun .def_551 () Bool (= call_voiture.move.next call_voiture.flby3.next))
(define-fun .def_548 () Bool (= call_voiture.ite3.next 0))
(define-fun .def_544 () Bool (not call_voiture.move.next))
(define-fun .def_545 () Bool (or call_voiture.second.next .def_544))
(define-fun .def_547 () Bool (not .def_545))
(define-fun .def_549 () Bool (or .def_547 .def_548))
(define-fun .def_543 () Bool (= call_voiture.ite2.next call_voiture.ite3.next))
(define-fun .def_546 () Bool (or .def_543 .def_545))
(define-fun .def_550 () Bool (and .def_546 .def_549))
(define-fun .def_552 () Bool (and .def_550 .def_551))
(define-fun .def_541 () Bool (= call_voiture.flby6.next call_voiture.time.next))
(define-fun .def_539 () Bool (= call_voiture.flby5.next call_voiture.speed.next))
(define-fun .def_537 () Bool (= call_voiture.flby4.next call_voiture.dist.next))
(define-fun .def_534 () Bool (= call_voiture.dist.next 10))
(define-fun .def_535 () Bool (= call_voiture.bump.next .def_534))
(define-fun .def_531 () Bool (<= 4 call_voiture.time.next))
(define-fun .def_532 () Bool (= call_voiture.stop.next .def_531))
(define-fun .def_528 () Bool (<= 3 call_voiture.speed.next))
(define-fun .def_529 () Bool (= call_voiture.toofast.next .def_528))
(define-fun .def_526 () Bool (= env.next call_Sofar.Sofar.next))
(define-fun .def_523 () Bool (= call_voiture.meter.next meter.next))
(define-fun .def_520 () Bool (= call_voiture.second.next second.next))
(define-fun .def_517 () Bool (= call_voiture.move.next move.next))
(define-fun .def_514 () Bool (= time.next call_voiture.time.next))
(define-fun .def_510 () Bool (= speed.next call_voiture.speed.next))
(define-fun .def_507 () Bool (= dist.next call_voiture.dist.next))
(define-fun .def_504 () Bool (= bump.next call_voiture.bump.next))
(define-fun .def_500 () Bool (= stop.next call_voiture.stop.next))
(define-fun .def_496 () Bool (= toofast.next call_voiture.toofast.next))
(define-fun .def_490 () Bool (<= 0 speed.next))
(define-fun .def_487 () Bool (<= 4 speed.next))
(define-fun .def_488 () Bool (not .def_487))
(define-fun .def_483 () Bool (<= 11 dist.next))
(define-fun .def_484 () Bool (not .def_483))
(define-fun .def_482 () Bool (<= 0 dist.next))
(define-fun .def_485 () Bool (and .def_482 .def_484))
(define-fun .def_489 () Bool (and .def_485 .def_488))
(define-fun .def_491 () Bool (and .def_489 .def_490))
(define-fun .def_481 () Bool (not env.next))
(define-fun .def_492 () Bool (or .def_481 .def_491))
(define-fun .def_493 () Bool (= _OK_.next .def_492))
(define-fun .def_497 () Bool (and .def_493 .def_496))
(define-fun .def_501 () Bool (and .def_497 .def_500))
(define-fun .def_505 () Bool (and .def_501 .def_504))
(define-fun .def_508 () Bool (and .def_505 .def_507))
(define-fun .def_511 () Bool (and .def_508 .def_510))
(define-fun .def_515 () Bool (and .def_511 .def_514))
(define-fun .def_518 () Bool (and .def_515 .def_517))
(define-fun .def_521 () Bool (and .def_518 .def_520))
(define-fun .def_524 () Bool (and .def_521 .def_523))
(define-fun .def_527 () Bool (and .def_524 .def_526))
(define-fun .def_530 () Bool (and .def_527 .def_529))
(define-fun .def_533 () Bool (and .def_530 .def_532))
(define-fun .def_536 () Bool (and .def_533 .def_535))
(define-fun .def_538 () Bool (and .def_536 .def_537))
(define-fun .def_540 () Bool (and .def_538 .def_539))
(define-fun .def_542 () Bool (and .def_540 .def_541))
(define-fun .def_553 () Bool (and .def_542 .def_552))
(define-fun .def_555 () Bool (and .def_553 .def_554))
(define-fun .def_557 () Bool (and .def_555 .def_556))
(define-fun .def_561 () Bool (and .def_557 .def_560))
(define-fun .def_563 () Bool (and .def_561 .def_562))
(define-fun .def_406 () Bool (= call_Sofar.flby call_Sofar.Sofar))
(define-fun .def_402 () Bool (and param_s param_m))
(define-fun .def_403 () Bool (not .def_402))
(define-fun .def_404 () Bool (= call_excludes2.excludes .def_403))
(define-fun .def_398 () Bool (= call_voiture.flby call_voiture.meter))
(define-fun .def_396 () Bool (= call_voiture.flby2 call_voiture.second))
(define-fun .def_393 () Bool (= call_voiture.flby3 call_voiture.move))
(define-fun .def_390 () Bool (= call_voiture.ite3 0))
(define-fun .def_386 () Bool (not call_voiture.move))
(define-fun .def_387 () Bool (or call_voiture.second .def_386))
(define-fun .def_389 () Bool (not .def_387))
(define-fun .def_391 () Bool (or .def_389 .def_390))
(define-fun .def_385 () Bool (= call_voiture.ite2 call_voiture.ite3))
(define-fun .def_388 () Bool (or .def_385 .def_387))
(define-fun .def_392 () Bool (and .def_388 .def_391))
(define-fun .def_394 () Bool (and .def_392 .def_393))
(define-fun .def_381 () Bool (= call_voiture.flby6 call_voiture.time))
(define-fun .def_379 () Bool (= call_voiture.flby5 call_voiture.speed))
(define-fun .def_377 () Bool (= call_voiture.flby4 call_voiture.dist))
(define-fun .def_374 () Bool (= call_voiture.dist 10))
(define-fun .def_375 () Bool (= call_voiture.bump .def_374))
(define-fun .def_371 () Bool (<= 4 call_voiture.time))
(define-fun .def_372 () Bool (= call_voiture.stop .def_371))
(define-fun .def_368 () Bool (<= 3 call_voiture.speed))
(define-fun .def_369 () Bool (= call_voiture.toofast .def_368))
(define-fun .def_366 () Bool (= env call_Sofar.Sofar))
(define-fun .def_363 () Bool (= meter call_voiture.meter))
(define-fun .def_359 () Bool (= second call_voiture.second))
(define-fun .def_355 () Bool (= move call_voiture.move))
(define-fun .def_351 () Bool (= time call_voiture.time))
(define-fun .def_347 () Bool (= speed call_voiture.speed))
(define-fun .def_344 () Bool (= dist call_voiture.dist))
(define-fun .def_341 () Bool (= bump call_voiture.bump))
(define-fun .def_337 () Bool (= stop call_voiture.stop))
(define-fun .def_333 () Bool (= toofast call_voiture.toofast))
(define-fun .def_327 () Bool (<= 0 speed))
(define-fun .def_324 () Bool (<= 4 speed))
(define-fun .def_325 () Bool (not .def_324))
(define-fun .def_320 () Bool (<= 11 dist))
(define-fun .def_321 () Bool (not .def_320))
(define-fun .def_319 () Bool (<= 0 dist))
(define-fun .def_322 () Bool (and .def_319 .def_321))
(define-fun .def_326 () Bool (and .def_322 .def_325))
(define-fun .def_328 () Bool (and .def_326 .def_327))
(define-fun .def_318 () Bool (not env))
(define-fun .def_329 () Bool (or .def_318 .def_328))
(define-fun .def_330 () Bool (= _OK_ .def_329))
(define-fun .def_334 () Bool (and .def_330 .def_333))
(define-fun .def_338 () Bool (and .def_334 .def_337))
(define-fun .def_342 () Bool (and .def_338 .def_341))
(define-fun .def_345 () Bool (and .def_342 .def_344))
(define-fun .def_348 () Bool (and .def_345 .def_347))
(define-fun .def_352 () Bool (and .def_348 .def_351))
(define-fun .def_356 () Bool (and .def_352 .def_355))
(define-fun .def_360 () Bool (and .def_356 .def_359))
(define-fun .def_364 () Bool (and .def_360 .def_363))
(define-fun .def_367 () Bool (and .def_364 .def_366))
(define-fun .def_370 () Bool (and .def_367 .def_369))
(define-fun .def_373 () Bool (and .def_370 .def_372))
(define-fun .def_376 () Bool (and .def_373 .def_375))
(define-fun .def_378 () Bool (and .def_376 .def_377))
(define-fun .def_380 () Bool (and .def_378 .def_379))
(define-fun .def_382 () Bool (and .def_380 .def_381))
(define-fun .def_395 () Bool (and .def_382 .def_394))
(define-fun .def_397 () Bool (and .def_395 .def_396))
(define-fun .def_399 () Bool (and .def_397 .def_398))
(define-fun .def_405 () Bool (and .def_399 .def_404))
(define-fun .def_407 () Bool (and .def_405 .def_406))
(define-fun .def_564 () Bool (and .def_407 .def_563))
(define-fun .def_471 () Bool (<= 32767 dist.next))
(define-fun .def_472 () Bool (not .def_471))
(define-fun .def_474 () Bool (and .def_472 call_excludes2.excludes.next))
(define-fun .def_475 () Bool (and call_Sofar.Sofar .def_474))
(define-fun .def_477 () Bool (= .def_475 call_Sofar.flby.next))
(define-fun .def_468 () Bool (= call_voiture.ite4.next call_voiture.flby6.next))
(define-fun .def_465 () Bool (= call_voiture.flby5.next call_voiture.ite3.next))
(define-fun .def_461 () Bool (= call_voiture.ite.next call_voiture.flby4.next))
(define-fun .def_455 () Bool (not call_voiture.bump))
(define-fun .def_453 () Bool (not call_voiture.toofast))
(define-fun .def_451 () Bool (not call_voiture.stop))
(define-fun .def_452 () Bool (and call_voiture.move .def_451))
(define-fun .def_454 () Bool (and .def_452 .def_453))
(define-fun .def_456 () Bool (and .def_454 .def_455))
(define-fun .def_458 () Bool (= .def_456 call_voiture.flby3.next))
(define-fun .def_449 () Bool (= param_s.next call_voiture.flby2.next))
(define-fun .def_442 () Bool (not param_s.next))
(define-fun .def_444 () Bool (and .def_442 param_m.next))
(define-fun .def_446 () Bool (= .def_444 call_voiture.flby.next))
(define-fun .def_437 () Bool (not call_voiture.second.next))
(define-fun .def_434 () Int (* (- 1) call_voiture.ite4.next))
(define-fun .def_435 () Int (+ call_voiture.time .def_434))
(define-fun .def_436 () Bool (= .def_435 (- 1)))
(define-fun .def_438 () Bool (or .def_436 .def_437))
(define-fun .def_431 () Bool (= call_voiture.time call_voiture.ite4.next))
(define-fun .def_433 () Bool (or .def_431 call_voiture.second.next))
(define-fun .def_439 () Bool (and .def_433 .def_438))
(define-fun .def_424 () Int (* (- 1) call_voiture.ite.next))
(define-fun .def_425 () Int (+ call_voiture.dist .def_424))
(define-fun .def_426 () Bool (= .def_425 (- 1)))
(define-fun .def_413 () Bool (and call_voiture.move.next call_voiture.meter.next))
(define-fun .def_418 () Bool (not .def_413))
(define-fun .def_427 () Bool (or .def_418 .def_426))
(define-fun .def_422 () Bool (= call_voiture.dist call_voiture.ite.next))
(define-fun .def_423 () Bool (or .def_413 .def_422))
(define-fun .def_428 () Bool (and .def_423 .def_427))
(define-fun .def_415 () Int (* (- 1) call_voiture.ite2.next))
(define-fun .def_416 () Int (+ call_voiture.speed .def_415))
(define-fun .def_417 () Bool (= .def_416 2))
(define-fun .def_419 () Bool (or .def_417 .def_418))
(define-fun .def_410 () Bool (= call_voiture.speed call_voiture.ite2.next))
(define-fun .def_414 () Bool (or .def_410 .def_413))
(define-fun .def_420 () Bool (and .def_414 .def_419))
(define-fun .def_429 () Bool (and .def_420 .def_428))
(define-fun .def_440 () Bool (and .def_429 .def_439))
(define-fun .def_447 () Bool (and .def_440 .def_446))
(define-fun .def_450 () Bool (and .def_447 .def_449))
(define-fun .def_459 () Bool (and .def_450 .def_458))
(define-fun .def_462 () Bool (and .def_459 .def_461))
(define-fun .def_466 () Bool (and .def_462 .def_465))
(define-fun .def_469 () Bool (and .def_466 .def_468))
(define-fun .def_478 () Bool (and .def_469 .def_477))
(define-fun .def_565 () Bool (and .def_478 .def_564))
(assert .def_565)
